NAME : LPS-n32-m187
COMMENT : (Lartu-Peter-Santi Plot, instance 11787 out of 39200. 32 customers.)
TYPE : CVRP
DIMENSION : 32
EDGE_WEIGHT_TYPE : EUC_2D
CAPACITY : 90
NODE_COORD_SECTION
 1 23 86
 2 54 18
 3 87 21
 4 88 20
 5 32 55
 6 52 52
 7 70 63
 8 2 21
 9 100 89
 10 54 52
 11 71 58
 12 49 15
 13 99 25
 14 91 2
 15 59 38
 16 70 14
 17 97 25
 18 53 27
 19 54 45
 20 7 33
 21 34 0
 22 16 73
 23 41 38
 24 84 75
 25 71 44
 26 29 54
 27 81 5
 28 90 39
 29 69 61
 30 54 15
 31 69 100
 32 42 67
DEMAND_SECTION
1 0
2 48
3 51
4 9
5 7
6 54
7 32
8 31
9 4
10 2
11 34
12 58
13 84
14 57
15 64
16 22
17 3
18 23
19 44
20 39
21 39
22 61
23 62
24 12
25 11
26 82
27 59
28 54
29 72
30 21
31 70
32 72
DEPOT_SECTION
 1
 -1
EOF
